@SET WFN_NAME enol-neb-BAND2-RESTART.wfn
@SET XYZ_NAME enol-neb-pos-Replica_nr_2-1.xyz

&GLOBAL
  PROJECT enol-hybrid-2                         ! Project name, gets prepended to all output files
  RUN_TYPE ENERGY                               ! Type of calculation
  PRINT_LEVEL LOW                               ! Low verbosity
&END GLOBAL

&FORCE_EVAL                                     ! Include DFT and system settings
  @include dft.inc
  @include subsys.inc
&END FORCE_EVAL
