@set WFN_NAME TODO
@set XYZ_NAME TODO

&GLOBAL
  PROJECT enol-vib                      ! Project name, gets prepended to all output files
  RUN_TYPE TODO                         ! Type of calculation
  PRINT_LEVEL LOW                       ! Low verbosity
&END GLOBAL

&FORCE_EVAL                             ! Include DFT and system settings
  @include dft.inc
  @include subsys.inc
&END FORCE_EVAL

&VIBRATIONAL_ANALYSIS
  NPROC_REP 16                          ! Allocate 16 cores for each degree of freedom
&END VIBRATIONAL_ANALYSIS
