@set WFN_NAME enol-neb-BAND5-RESTART.wfn
@set XYZ_NAME enol-neb-pos-Replica_nr_5-1.xyz

&GLOBAL
  PROJECT enol-vib                      ! Project name, gets prepended to all output files
  RUN_TYPE VIBRATIONAL_ANALYSIS         ! Type of calculation
  PRINT_LEVEL LOW                       ! Low verbosity
&END GLOBAL

&FORCE_EVAL                             ! Include DFT and system settings
  @include dft.inc
  @include subsys.inc
&END FORCE_EVAL

&VIBRATIONAL_ANALYSIS
  NPROC_REP 16                          ! Allocate 16 cores for each degree of freedom
&END VIBRATIONAL_ANALYSIS
