@SET WFN_NAME dummy
@SET XYZ_NAME enol-solv.xyz

&GLOBAL
  PROJECT enol-aimd                             ! Project name, gets prepended to all output files
  RUN_TYPE MD                                   ! Type of calculation
  PRINT_LEVEL LOW                               ! Low verbosity
&END GLOBAL

&FORCE_EVAL                                     ! Include DFT and system settings
  @include dft.inc
  @include subsys.inc
&END FORCE_EVAL

&MOTION
  &MD
    ENSEMBLE NVT                                ! Thermodynamic ensemble
    STEPS 1000                                  ! How many MD steps to run
    TIMESTEP 0.5                                ! Timestep in femtoseconds
    &THERMOSTAT                                 ! Thermostat settings
      TYPE CSVR
      &CSVR
        TIMECON 50                              ! Low value for equilibration
      &END CSVR
    &END THERMOSTAT
    TEMPERATURE 348.15                          ! Simulation temperature in K
  &END MD
  &PRINT                                        ! We don't need restarts in this case
    &RESTART OFF
    &END RESTART
    &RESTART_HISTORY OFF
    &END RESTART_HISTORY
  &END PRINT
&END MOTION
